param set_len = 50;
param target := 418985125;
param values := [1] 32662576 [2] 18835520 [3] 30654607 [4] 25563465 [5] 31693503 [6] 7713340 [7] 6180143 [8] 2577426 [9] 14111829 [10] 18497546 [11] 17691717 [12] 27707004 [13] 21558245 [14] 9176456 [15] 30765553 [16] 4381054 [17] 15335831 [18] 28624231 [19] 5416315 [20] 9365367 [21] 17759170 [22] 19289365 [23] 21930937 [24] 32685351 [25] 12110525 [26] 27964570 [27] 1011553 [28] 17027484 [29] 7673904 [30] 10390568 [31] 15761908 [32] 1925556 [33] 33316203 [34] 19905436 [35] 17642992 [36] 30779499 [37] 24425433 [38] 27044995 [39] 18204867 [40] 16146056 [41] 11464790 [42] 1424829 [43] 14541807 [44] 13696826 [45] 1741407 [46] 15448355 [47] 19899557 [48] 5318480 [49] 31825131 [50] 11727235 ;
